5
100
320
40	24
1	4	7	11	7	11	5	8	10	6	
2	4	5	9	10	3	11	2	6	2	
3	2	4	8	8	3	
4	5	22	4	7	4	9	3	7	3	14	2	
5	4	7	10	9	4	22	3	11	2	
6	3	5	4	13	3	7	3	
7	5	9	5	19	3	19	3	7	3	6	3	
8	4	9	4	8	4	17	2	4	2	
9	3	7	9	24	4	17	3	
10	1	21	4	
11	4	17	3	5	3	8	2	4	2	
12	4	7	6	10	5	22	4	7	4	
13	4	4	7	8	6	7	5	20	3	
14	1	5	6	
15	4	6	12	5	11	8	3	8	3	
16	4	22	4	11	4	5	4	7	3	
17	4	10	5	4	4	6	3	15	2	
18	3	6	12	22	4	19	3	
19	3	7	11	6	6	16	3	
20	5	7	7	7	7	6	4	22	3	16	3	
21	5	8	4	22	3	7	3	7	3	21	2	
22	5	10	5	8	4	9	3	4	3	20	2	
23	1	6	10	
24	4	8	4	9	3	6	3	16	2	
25	1	8	5	
26	5	9	6	19	3	11	3	10	3	9	2	
27	1	11	4	
28	1	22	4	
29	3	4	10	7	2	6	2	
30	2	6	4	6	2	
31	2	5	9	5	3	
32	4	5	12	6	5	22	3	4	3	
33	5	6	7	12	4	6	4	5	3	5	2	
34	3	7	11	6	5	13	3	
35	3	7	9	7	6	11	4	
36	1	14	3	
37	5	8	6	8	5	6	5	10	3	9	3	
38	4	8	4	12	3	5	3	5	2	
39	2	6	9	12	2	
40	4	5	6	6	5	6	4	7	2	
41	4	4	11	8	8	4	4	10	3	
42	1	12	5	
43	3	7	11	10	4	24	2	
44	1	6	4	
45	2	6	6	10	5	
46	4	5	10	4	5	11	4	7	3	
47	3	8	7	12	5	10	5	
48	3	23	3	14	3	6	3	
49	5	5	11	7	7	7	6	6	2	4	2	
50	4	7	9	22	4	9	4	10	2	
51	2	11	4	18	3	
52	5	10	6	19	3	7	3	24	2	18	2	
53	2	11	5	21	2	
54	2	6	10	5	4	
55	1	5	5	
56	5	6	10	6	4	5	3	21	2	11	2	
57	5	5	10	6	7	12	3	9	2	4	2	
58	4	5	5	7	4	6	3	5	3	
59	2	8	6	15	4	
60	3	7	5	23	3	6	3	
61	4	5	12	6	6	15	2	11	2	
62	2	6	4	6	3	
63	2	4	5	8	3	
64	5	7	5	6	5	20	4	4	4	18	3	
65	3	6	5	21	4	15	3	
66	4	5	12	8	4	5	3	11	2	
67	2	8	4	19	3	
68	4	11	3	8	3	6	3	22	2	
69	4	8	6	5	5	8	4	12	3	
70	1	11	4	
71	2	17	3	10	2	
72	2	7	10	6	10	
73	3	7	9	5	7	12	4	
74	4	4	8	8	6	23	3	7	3	
75	3	7	5	6	4	22	3	
76	1	6	6	
77	4	5	7	8	5	11	4	21	3	
78	5	6	4	14	3	12	3	14	2	14	2	
79	4	12	3	9	3	8	3	5	3	
80	2	11	5	5	3	
81	1	7	11	
82	2	18	4	7	3	
83	5	5	5	23	4	5	4	4	4	14	3	
84	5	6	8	6	6	11	4	10	3	7	3	
85	4	8	6	6	5	5	4	18	3	
86	5	6	5	10	4	9	4	11	3	8	3	
87	2	8	5	7	3	
88	5	6	11	4	11	8	4	19	3	10	3	
89	1	6	6	
90	5	8	11	4	11	5	3	8	2	7	2	
91	5	6	10	7	9	5	9	8	7	5	3	
92	1	9	4	
93	5	6	10	7	8	7	5	19	4	6	4	
94	2	5	4	5	3	
95	3	5	6	9	3	6	3	
96	3	5	4	5	4	22	3	
97	3	4	8	18	4	22	3	
98	4	9	6	20	3	14	3	10	3	
99	3	6	4	4	4	6	2	
100	2	9	3	10	2	
